NAME 
OBJSENSE MAX
ROWS
 N  OBJ
 L  packing[0]
 L  packing[1]
 L  packing[2]
 L  packing[3]
 L  packing[4]
 L  packing[5]
 L  packing[6]
 L  packing[7]
 L  packing[8]
 L  packing[9]
 L  packing[10]
 L  packing[11]
 L  packing[12]
 L  packing[13]
 L  packing[14]
 L  packing[15]
 L  packing[16]
 L  packing[17]
 L  packing[18]
 L  packing[19]
 L  packing[20]
 L  packing[21]
 L  packing[22]
 L  packing[23]
 L  packing[24]
 L  packing[25]
 L  packing[26]
 L  packing[27]
 L  packing[28]
 L  packing[29]
 L  packing[30]
 L  packing[31]
 L  packing[32]
 L  packing[33]
 L  packing[34]
 L  packing[35]
 L  packing[36]
 L  packing[37]
 L  packing[38]
 L  packing[39]
 L  packing[40]
 L  packing[41]
 L  packing[42]
 L  packing[43]
 L  packing[44]
 L  packing[45]
 L  packing[46]
 L  packing[47]
 L  packing[48]
 L  packing[49]
 L  R63     
 L  R64     
 L  R65     
 L  R66     
 L  R67     
 L  R68     
 L  R69     
 L  R70     
 L  R71     
 L  R72     
 L  R73     
 L  R74     
 L  R75     
COLUMNS
    MARKER    'MARKER'                 'INTORG'
    x[1]      OBJ       183
    x[1]      packing[0]  84
    x[1]      packing[1]  111
    x[1]      packing[3]  147
    x[1]      packing[5]  147
    x[1]      packing[6]  39
    x[1]      packing[7]  156
    x[1]      packing[8]  142
    x[1]      packing[9]  52
    x[1]      packing[10]  113
    x[1]      packing[13]  65
    x[1]      packing[15]  172
    x[1]      packing[16]  86
    x[1]      packing[17]  190
    x[1]      packing[18]  190
    x[1]      packing[19]  40
    x[1]      packing[20]  113
    x[1]      packing[21]  148
    x[1]      packing[22]  88
    x[1]      packing[23]  75
    x[1]      packing[24]  22
    x[1]      packing[25]  171
    x[1]      packing[26]  169
    x[1]      packing[27]  87
    x[1]      packing[31]  72
    x[1]      packing[33]  124
    x[1]      packing[34]  68
    x[1]      packing[36]  56
    x[1]      packing[37]  123
    x[1]      packing[38]  90
    x[1]      packing[40]  33
    x[1]      packing[41]  104
    x[1]      packing[42]  73
    x[1]      packing[43]  158
    x[1]      packing[44]  73
    x[1]      packing[45]  163
    x[1]      packing[46]  74
    x[1]      packing[47]  163
    x[1]      packing[48]  117
    x[1]      packing[49]  47
    x[1]      R63       1
    x[1]      R65       1
    x[1]      R67       1
    x[1]      R68       1
    x[1]      R69       1
    x[1]      R70       1
    x[1]      R71       1
    x[1]      R73       1
    x[1]      R74       1
    x[1]      R75       1
    x[2]      OBJ       152
    x[2]      packing[0]  139
    x[2]      packing[1]  40
    x[2]      packing[2]  57
    x[2]      packing[3]  28
    x[2]      packing[4]  114
    x[2]      packing[5]  126
    x[2]      packing[6]  185
    x[2]      packing[8]  197
    x[2]      packing[9]  55
    x[2]      packing[10]  37
    x[2]      packing[12]  148
    x[2]      packing[13]  190
    x[2]      packing[14]  116
    x[2]      packing[15]  179
    x[2]      packing[16]  31
    x[2]      packing[17]  144
    x[2]      packing[18]  128
    x[2]      packing[19]  51
    x[2]      packing[20]  134
    x[2]      packing[21]  86
    x[2]      packing[23]  81
    x[2]      packing[24]  10
    x[2]      packing[25]  198
    x[2]      packing[27]  29
    x[2]      packing[28]  135
    x[2]      packing[30]  167
    x[2]      packing[31]  93
    x[2]      packing[32]  29
    x[2]      packing[33]  64
    x[2]      packing[34]  59
    x[2]      packing[35]  115
    x[2]      packing[36]  196
    x[2]      packing[38]  60
    x[2]      packing[40]  103
    x[2]      packing[41]  126
    x[2]      packing[44]  153
    x[2]      packing[45]  126
    x[2]      packing[46]  125
    x[2]      packing[47]  94
    x[2]      packing[49]  183
    x[2]      R65       1
    x[2]      R66       1
    x[2]      R69       1
    x[2]      R74       1
    x[3]      OBJ       20
    x[3]      packing[0]  68
    x[3]      packing[1]  157
    x[3]      packing[2]  137
    x[3]      packing[4]  165
    x[3]      packing[5]  78
    x[3]      packing[7]  190
    x[3]      packing[8]  47
    x[3]      packing[10]  118
    x[3]      packing[12]  158
    x[3]      packing[13]  90
    x[3]      packing[14]  186
    x[3]      packing[15]  160
    x[3]      packing[16]  93
    x[3]      packing[17]  92
    x[3]      packing[18]  108
    x[3]      packing[19]  88
    x[3]      packing[20]  2
    x[3]      packing[21]  187
    x[3]      packing[22]  120
    x[3]      packing[24]  163
    x[3]      packing[26]  198
    x[3]      packing[28]  45
    x[3]      packing[29]  104
    x[3]      packing[30]  84
    x[3]      packing[31]  120
    x[3]      packing[32]  4
    x[3]      packing[33]  63
    x[3]      packing[37]  15
    x[3]      packing[40]  192
    x[3]      packing[41]  134
    x[3]      packing[42]  141
    x[3]      packing[43]  175
    x[3]      packing[45]  108
    x[3]      packing[48]  124
    x[3]      packing[49]  142
    x[4]      OBJ       93
    x[4]      packing[0]  162
    x[4]      packing[1]  141
    x[4]      packing[2]  140
    x[4]      packing[3]  31
    x[4]      packing[4]  188
    x[4]      packing[6]  87
    x[4]      packing[7]  1
    x[4]      packing[8]  192
    x[4]      packing[9]  95
    x[4]      packing[10]  178
    x[4]      packing[12]  66
    x[4]      packing[13]  10
    x[4]      packing[15]  198
    x[4]      packing[16]  18
    x[4]      packing[17]  171
    x[4]      packing[18]  141
    x[4]      packing[19]  181
    x[4]      packing[20]  32
    x[4]      packing[21]  160
    x[4]      packing[24]  59
    x[4]      packing[27]  62
    x[4]      packing[28]  43
    x[4]      packing[29]  120
    x[4]      packing[31]  194
    x[4]      packing[32]  185
    x[4]      packing[34]  21
    x[4]      packing[35]  175
    x[4]      packing[36]  69
    x[4]      packing[37]  35
    x[4]      packing[38]  27
    x[4]      packing[40]  48
    x[4]      packing[41]  46
    x[4]      packing[43]  135
    x[4]      packing[45]  168
    x[4]      packing[46]  195
    x[4]      packing[47]  103
    x[4]      packing[48]  22
    x[4]      R63       1
    x[4]      R67       1
    x[4]      R72       1
    x[4]      R75       1
    x[5]      OBJ       186
    x[5]      packing[0]  96
    x[5]      packing[1]  111
    x[5]      packing[3]  11
    x[5]      packing[6]  52
    x[5]      packing[8]  27
    x[5]      packing[9]  191
    x[5]      packing[10]  163
    x[5]      packing[12]  174
    x[5]      packing[13]  23
    x[5]      packing[14]  138
    x[5]      packing[15]  48
    x[5]      packing[16]  118
    x[5]      packing[17]  181
    x[5]      packing[19]  127
    x[5]      packing[20]  151
    x[5]      packing[21]  2
    x[5]      packing[23]  153
    x[5]      packing[24]  87
    x[5]      packing[25]  130
    x[5]      packing[27]  70
    x[5]      packing[28]  107
    x[5]      packing[29]  160
    x[5]      packing[31]  144
    x[5]      packing[32]  56
    x[5]      packing[37]  21
    x[5]      packing[38]  68
    x[5]      packing[40]  31
    x[5]      packing[41]  24
    x[5]      packing[42]  184
    x[5]      packing[43]  103
    x[5]      packing[44]  91
    x[5]      packing[45]  105
    x[5]      packing[46]  35
    x[5]      packing[48]  116
    x[5]      packing[49]  86
    x[5]      R63       1
    x[5]      R65       1
    x[5]      R66       1
    x[5]      R68       1
    x[5]      R69       1
    x[5]      R71       1
    x[5]      R72       1
    x[5]      R73       1
    x[5]      R74       1
    x[5]      R75       1
    x[6]      OBJ       134
    x[6]      packing[1]  29
    x[6]      packing[3]  1
    x[6]      packing[4]  37
    x[6]      packing[5]  50
    x[6]      packing[6]  4
    x[6]      packing[7]  83
    x[6]      packing[8]  98
    x[6]      packing[11]  192
    x[6]      packing[12]  67
    x[6]      packing[13]  58
    x[6]      packing[14]  185
    x[6]      packing[15]  69
    x[6]      packing[18]  26
    x[6]      packing[20]  30
    x[6]      packing[22]  82
    x[6]      packing[23]  32
    x[6]      packing[24]  37
    x[6]      packing[25]  130
    x[6]      packing[26]  139
    x[6]      packing[27]  160
    x[6]      packing[28]  105
    x[6]      packing[29]  170
    x[6]      packing[30]  175
    x[6]      packing[31]  46
    x[6]      packing[32]  46
    x[6]      packing[33]  94
    x[6]      packing[35]  158
    x[6]      packing[36]  5
    x[6]      packing[38]  26
    x[6]      packing[41]  153
    x[6]      packing[42]  153
    x[6]      packing[43]  11
    x[6]      packing[44]  37
    x[6]      packing[47]  199
    x[6]      packing[48]  156
    x[6]      packing[49]  50
    x[6]      R64       1
    x[6]      R65       1
    x[6]      R66       1
    x[6]      R67       1
    x[6]      R68       1
    x[6]      R69       1
    x[6]      R70       1
    x[6]      R71       1
    x[6]      R72       1
    x[6]      R73       1
    x[6]      R74       1
    x[7]      OBJ       86
    x[7]      packing[1]  86
    x[7]      packing[2]  46
    x[7]      packing[3]  168
    x[7]      packing[5]  60
    x[7]      packing[6]  149
    x[7]      packing[7]  165
    x[7]      packing[8]  188
    x[7]      packing[9]  174
    x[7]      packing[10]  152
    x[7]      packing[11]  43
    x[7]      packing[12]  67
    x[7]      packing[14]  80
    x[7]      packing[15]  100
    x[7]      packing[16]  128
    x[7]      packing[17]  186
    x[7]      packing[18]  92
    x[7]      packing[19]  108
    x[7]      packing[20]  30
    x[7]      packing[21]  30
    x[7]      packing[22]  184
    x[7]      packing[23]  47
    x[7]      packing[24]  73
    x[7]      packing[25]  54
    x[7]      packing[26]  33
    x[7]      packing[27]  13
    x[7]      packing[30]  154
    x[7]      packing[31]  181
    x[7]      packing[32]  77
    x[7]      packing[33]  77
    x[7]      packing[34]  170
    x[7]      packing[35]  105
    x[7]      packing[36]  177
    x[7]      packing[37]  186
    x[7]      packing[38]  43
    x[7]      packing[39]  185
    x[7]      packing[40]  94
    x[7]      packing[41]  199
    x[7]      packing[43]  11
    x[7]      packing[44]  109
    x[7]      packing[46]  55
    x[7]      packing[47]  122
    x[7]      packing[49]  143
    x[8]      OBJ       80
    x[8]      packing[1]  171
    x[8]      packing[3]  71
    x[8]      packing[4]  103
    x[8]      packing[5]  164
    x[8]      packing[7]  122
    x[8]      packing[8]  131
    x[8]      packing[9]  114
    x[8]      packing[10]  176
    x[8]      packing[11]  160
    x[8]      packing[12]  83
    x[8]      packing[14]  177
    x[8]      packing[15]  126
    x[8]      packing[16]  137
    x[8]      packing[18]  107
    x[8]      packing[20]  127
    x[8]      packing[21]  2
    x[8]      packing[23]  121
    x[8]      packing[24]  42
    x[8]      packing[26]  62
    x[8]      packing[28]  163
    x[8]      packing[29]  17
    x[8]      packing[31]  129
    x[8]      packing[33]  108
    x[8]      packing[36]  81
    x[8]      packing[37]  166
    x[8]      packing[38]  188
    x[8]      packing[39]  36
    x[8]      packing[40]  184
    x[8]      packing[41]  124
    x[8]      packing[42]  44
    x[8]      packing[43]  197
    x[8]      packing[44]  22
    x[8]      packing[45]  147
    x[8]      packing[47]  156
    x[8]      packing[48]  68
    x[8]      packing[49]  187
    x[9]      OBJ       68
    x[9]      packing[1]  100
    x[9]      packing[3]  120
    x[9]      packing[5]  116
    x[9]      packing[6]  79
    x[9]      packing[7]  99
    x[9]      packing[8]  152
    x[9]      packing[10]  42
    x[9]      packing[11]  18
    x[9]      packing[12]  142
    x[9]      packing[14]  81
    x[9]      packing[16]  11
    x[9]      packing[17]  101
    x[9]      packing[19]  135
    x[9]      packing[20]  186
    x[9]      packing[23]  92
    x[9]      packing[25]  80
    x[9]      packing[27]  180
    x[9]      packing[28]  194
    x[9]      packing[29]  50
    x[9]      packing[31]  63
    x[9]      packing[33]  76
    x[9]      packing[34]  129
    x[9]      packing[35]  104
    x[9]      packing[37]  107
    x[9]      packing[39]  187
    x[9]      packing[40]  129
    x[9]      packing[42]  21
    x[9]      packing[43]  151
    x[9]      packing[44]  81
    x[9]      packing[45]  58
    x[9]      packing[47]  54
    x[9]      packing[48]  161
    x[10]     OBJ       98
    x[10]     packing[0]  117
    x[10]     packing[1]  144
    x[10]     packing[2]  33
    x[10]     packing[3]  173
    x[10]     packing[4]  20
    x[10]     packing[6]  48
    x[10]     packing[7]  186
    x[10]     packing[8]  26
    x[10]     packing[9]  183
    x[10]     packing[10]  52
    x[10]     packing[11]  39
    x[10]     packing[12]  53
    x[10]     packing[13]  163
    x[10]     packing[14]  116
    x[10]     packing[15]  48
    x[10]     packing[18]  95
    x[10]     packing[19]  13
    x[10]     packing[21]  46
    x[10]     packing[23]  194
    x[10]     packing[24]  119
    x[10]     packing[30]  82
    x[10]     packing[31]  198
    x[10]     packing[32]  13
    x[10]     packing[33]  134
    x[10]     packing[34]  44
    x[10]     packing[35]  189
    x[10]     packing[36]  37
    x[10]     packing[38]  92
    x[10]     packing[39]  98
    x[10]     packing[40]  29
    x[10]     packing[41]  137
    x[10]     packing[44]  85
    x[10]     packing[45]  81
    x[10]     packing[46]  68
    x[10]     packing[47]  37
    x[10]     packing[48]  192
    x[10]     packing[49]  70
    x[10]     R63       1
    x[10]     R64       1
    x[10]     R65       1
    x[10]     R66       1
    x[10]     R67       1
    x[10]     R68       1
    x[10]     R72       1
    x[10]     R74       1
    x[10]     R75       1
    x[11]     OBJ       80
    x[11]     packing[0]  6
    x[11]     packing[1]  28
    x[11]     packing[2]  89
    x[11]     packing[3]  119
    x[11]     packing[4]  102
    x[11]     packing[6]  173
    x[11]     packing[7]  90
    x[11]     packing[8]  88
    x[11]     packing[9]  75
    x[11]     packing[11]  57
    x[11]     packing[12]  159
    x[11]     packing[13]  95
    x[11]     packing[14]  66
    x[11]     packing[15]  156
    x[11]     packing[16]  69
    x[11]     packing[18]  8
    x[11]     packing[19]  57
    x[11]     packing[20]  13
    x[11]     packing[21]  1
    x[11]     packing[22]  55
    x[11]     packing[23]  99
    x[11]     packing[24]  14
    x[11]     packing[26]  21
    x[11]     packing[28]  116
    x[11]     packing[29]  69
    x[11]     packing[32]  144
    x[11]     packing[33]  37
    x[11]     packing[35]  178
    x[11]     packing[37]  85
    x[11]     packing[38]  26
    x[11]     packing[39]  137
    x[11]     packing[40]  35
    x[11]     packing[42]  55
    x[11]     packing[43]  199
    x[11]     packing[44]  85
    x[11]     packing[47]  48
    x[11]     packing[48]  44
    x[11]     packing[49]  81
    x[12]     OBJ       119
    x[12]     packing[1]  84
    x[12]     packing[2]  169
    x[12]     packing[3]  55
    x[12]     packing[4]  140
    x[12]     packing[5]  122
    x[12]     packing[6]  143
    x[12]     packing[7]  4
    x[12]     packing[8]  9
    x[12]     packing[10]  173
    x[12]     packing[12]  95
    x[12]     packing[13]  112
    x[12]     packing[15]  157
    x[12]     packing[16]  72
    x[12]     packing[17]  198
    x[12]     packing[18]  145
    x[12]     packing[19]  6
    x[12]     packing[20]  53
    x[12]     packing[21]  183
    x[12]     packing[23]  176
    x[12]     packing[24]  45
    x[12]     packing[25]  20
    x[12]     packing[26]  193
    x[12]     packing[27]  34
    x[12]     packing[29]  88
    x[12]     packing[30]  177
    x[12]     packing[31]  63
    x[12]     packing[32]  176
    x[12]     packing[33]  134
    x[12]     packing[35]  41
    x[12]     packing[36]  40
    x[12]     packing[38]  83
    x[12]     packing[39]  78
    x[12]     packing[40]  108
    x[12]     packing[41]  165
    x[12]     packing[42]  31
    x[12]     packing[43]  139
    x[12]     packing[44]  33
    x[12]     packing[45]  195
    x[12]     packing[46]  165
    x[12]     packing[48]  198
    x[12]     packing[49]  43
    x[12]     R67       1
    x[12]     R68       1
    x[12]     R70       1
    x[12]     R72       1
    x[12]     R75       1
    x[13]     OBJ       39
    x[13]     packing[0]  140
    x[13]     packing[5]  63
    x[13]     packing[6]  2
    x[13]     packing[7]  74
    x[13]     packing[9]  31
    x[13]     packing[10]  171
    x[13]     packing[12]  63
    x[13]     packing[13]  168
    x[13]     packing[14]  52
    x[13]     packing[16]  133
    x[13]     packing[17]  178
    x[13]     packing[19]  75
    x[13]     packing[20]  142
    x[13]     packing[22]  192
    x[13]     packing[23]  172
    x[13]     packing[24]  158
    x[13]     packing[25]  68
    x[13]     packing[26]  170
    x[13]     packing[27]  40
    x[13]     packing[29]  37
    x[13]     packing[30]  152
    x[13]     packing[32]  117
    x[13]     packing[33]  49
    x[13]     packing[34]  24
    x[13]     packing[35]  37
    x[13]     packing[36]  197
    x[13]     packing[37]  168
    x[13]     packing[38]  50
    x[13]     packing[39]  7
    x[13]     packing[40]  157
    x[13]     packing[41]  187
    x[13]     packing[42]  155
    x[13]     packing[43]  2
    x[13]     packing[47]  28
    x[13]     packing[48]  94
    x[13]     packing[49]  27
    x[14]     OBJ       182
    x[14]     packing[0]  129
    x[14]     packing[2]  109
    x[14]     packing[3]  169
    x[14]     packing[6]  21
    x[14]     packing[7]  57
    x[14]     packing[8]  27
    x[14]     packing[9]  19
    x[14]     packing[10]  79
    x[14]     packing[11]  76
    x[14]     packing[12]  149
    x[14]     packing[14]  131
    x[14]     packing[17]  147
    x[14]     packing[18]  128
    x[14]     packing[20]  131
    x[14]     packing[25]  167
    x[14]     packing[26]  155
    x[14]     packing[28]  22
    x[14]     packing[29]  176
    x[14]     packing[30]  156
    x[14]     packing[31]  53
    x[14]     packing[32]  176
    x[14]     packing[33]  155
    x[14]     packing[34]  185
    x[14]     packing[36]  122
    x[14]     packing[37]  127
    x[14]     packing[38]  56
    x[14]     packing[39]  137
    x[14]     packing[40]  66
    x[14]     packing[41]  152
    x[14]     packing[42]  160
    x[14]     packing[43]  194
    x[14]     packing[44]  2
    x[14]     packing[45]  89
    x[14]     packing[46]  86
    x[14]     packing[47]  124
    x[14]     packing[48]  111
    x[14]     packing[49]  174
    x[14]     R63       1
    x[14]     R64       1
    x[14]     R66       1
    x[14]     R67       1
    x[14]     R69       1
    x[14]     R70       1
    x[14]     R72       1
    x[14]     R73       1
    x[14]     R74       1
    x[14]     R75       1
    x[15]     OBJ       36
    x[15]     packing[0]  74
    x[15]     packing[1]  104
    x[15]     packing[2]  119
    x[15]     packing[3]  85
    x[15]     packing[5]  106
    x[15]     packing[6]  139
    x[15]     packing[7]  40
    x[15]     packing[8]  35
    x[15]     packing[9]  148
    x[15]     packing[10]  168
    x[15]     packing[11]  141
    x[15]     packing[12]  46
    x[15]     packing[15]  170
    x[15]     packing[16]  134
    x[15]     packing[17]  183
    x[15]     packing[18]  83
    x[15]     packing[19]  98
    x[15]     packing[21]  113
    x[15]     packing[22]  6
    x[15]     packing[24]  49
    x[15]     packing[26]  144
    x[15]     packing[27]  33
    x[15]     packing[28]  78
    x[15]     packing[29]  8
    x[15]     packing[30]  1
    x[15]     packing[31]  41
    x[15]     packing[32]  27
    x[15]     packing[33]  59
    x[15]     packing[35]  83
    x[15]     packing[37]  132
    x[15]     packing[38]  78
    x[15]     packing[39]  178
    x[15]     packing[40]  145
    x[15]     packing[41]  88
    x[15]     packing[42]  178
    x[15]     packing[43]  80
    x[15]     packing[45]  183
    x[15]     packing[46]  38
    x[15]     packing[47]  39
    x[15]     packing[49]  110
    x[15]     R63       1
    x[15]     R70       1
    x[15]     R73       1
    x[16]     OBJ       88
    x[16]     packing[0]  18
    x[16]     packing[1]  160
    x[16]     packing[3]  29
    x[16]     packing[4]  178
    x[16]     packing[5]  76
    x[16]     packing[6]  90
    x[16]     packing[7]  178
    x[16]     packing[8]  35
    x[16]     packing[10]  90
    x[16]     packing[11]  98
    x[16]     packing[12]  131
    x[16]     packing[13]  92
    x[16]     packing[14]  114
    x[16]     packing[15]  179
    x[16]     packing[16]  70
    x[16]     packing[17]  68
    x[16]     packing[20]  52
    x[16]     packing[21]  111
    x[16]     packing[23]  195
    x[16]     packing[24]  159
    x[16]     packing[27]  133
    x[16]     packing[28]  83
    x[16]     packing[29]  98
    x[16]     packing[30]  81
    x[16]     packing[34]  119
    x[16]     packing[36]  13
    x[16]     packing[38]  179
    x[16]     packing[39]  54
    x[16]     packing[40]  69
    x[16]     packing[41]  190
    x[16]     packing[43]  41
    x[16]     packing[44]  42
    x[16]     packing[45]  130
    x[16]     packing[46]  62
    x[16]     packing[47]  131
    x[16]     packing[48]  71
    x[16]     packing[49]  161
    x[16]     R64       1
    x[16]     R65       1
    x[16]     R66       1
    x[16]     R68       1
    x[16]     R71       1
    x[17]     OBJ       9
    x[17]     packing[0]  3
    x[17]     packing[1]  171
    x[17]     packing[4]  178
    x[17]     packing[5]  135
    x[17]     packing[6]  51
    x[17]     packing[7]  195
    x[17]     packing[8]  188
    x[17]     packing[9]  20
    x[17]     packing[11]  18
    x[17]     packing[12]  194
    x[17]     packing[14]  112
    x[17]     packing[15]  186
    x[17]     packing[17]  40
    x[17]     packing[20]  54
    x[17]     packing[22]  130
    x[17]     packing[23]  37
    x[17]     packing[24]  86
    x[17]     packing[27]  32
    x[17]     packing[28]  84
    x[17]     packing[29]  198
    x[17]     packing[31]  12
    x[17]     packing[32]  17
    x[17]     packing[33]  129
    x[17]     packing[34]  132
    x[17]     packing[35]  82
    x[17]     packing[36]  165
    x[17]     packing[38]  107
    x[17]     packing[39]  15
    x[17]     packing[40]  87
    x[17]     packing[42]  62
    x[17]     packing[43]  133
    x[17]     packing[44]  30
    x[17]     packing[45]  84
    x[17]     packing[46]  70
    x[17]     packing[47]  20
    x[17]     packing[48]  155
    x[17]     packing[49]  84
    x[18]     OBJ       73
    x[18]     packing[0]  128
    x[18]     packing[2]  65
    x[18]     packing[3]  24
    x[18]     packing[5]  150
    x[18]     packing[6]  118
    x[18]     packing[7]  178
    x[18]     packing[8]  186
    x[18]     packing[9]  18
    x[18]     packing[10]  28
    x[18]     packing[11]  19
    x[18]     packing[12]  78
    x[18]     packing[15]  36
    x[18]     packing[16]  191
    x[18]     packing[17]  42
    x[18]     packing[18]  106
    x[18]     packing[20]  178
    x[18]     packing[21]  111
    x[18]     packing[22]  137
    x[18]     packing[24]  196
    x[18]     packing[25]  124
    x[18]     packing[28]  109
    x[18]     packing[29]  162
    x[18]     packing[30]  15
    x[18]     packing[31]  88
    x[18]     packing[33]  196
    x[18]     packing[34]  27
    x[18]     packing[35]  172
    x[18]     packing[36]  41
    x[18]     packing[37]  89
    x[18]     packing[38]  20
    x[18]     packing[39]  115
    x[18]     packing[41]  162
    x[18]     packing[42]  105
    x[18]     packing[43]  61
    x[18]     packing[45]  129
    x[18]     packing[46]  130
    x[18]     packing[47]  163
    x[18]     packing[48]  107
    x[18]     packing[49]  143
    x[19]     OBJ       43
    x[19]     packing[0]  145
    x[19]     packing[3]  127
    x[19]     packing[4]  53
    x[19]     packing[6]  33
    x[19]     packing[7]  125
    x[19]     packing[8]  152
    x[19]     packing[9]  185
    x[19]     packing[10]  107
    x[19]     packing[11]  103
    x[19]     packing[12]  77
    x[19]     packing[13]  25
    x[19]     packing[15]  159
    x[19]     packing[16]  21
    x[19]     packing[17]  46
    x[19]     packing[18]  54
    x[19]     packing[19]  12
    x[19]     packing[20]  42
    x[19]     packing[21]  40
    x[19]     packing[22]  156
    x[19]     packing[23]  62
    x[19]     packing[24]  121
    x[19]     packing[25]  197
    x[19]     packing[26]  188
    x[19]     packing[27]  77
    x[19]     packing[28]  44
    x[19]     packing[29]  29
    x[19]     packing[33]  124
    x[19]     packing[34]  129
    x[19]     packing[35]  13
    x[19]     packing[36]  89
    x[19]     packing[37]  145
    x[19]     packing[38]  149
    x[19]     packing[39]  10
    x[19]     packing[42]  90
    x[19]     packing[43]  99
    x[19]     packing[45]  142
    x[19]     packing[47]  10
    x[19]     packing[48]  120
    x[19]     packing[49]  43
    x[20]     OBJ       48
    x[20]     packing[0]  2
    x[20]     packing[1]  71
    x[20]     packing[2]  63
    x[20]     packing[3]  154
    x[20]     packing[4]  23
    x[20]     packing[6]  64
    x[20]     packing[7]  53
    x[20]     packing[8]  187
    x[20]     packing[9]  172
    x[20]     packing[10]  73
    x[20]     packing[11]  190
    x[20]     packing[12]  150
    x[20]     packing[13]  53
    x[20]     packing[15]  152
    x[20]     packing[16]  13
    x[20]     packing[17]  90
    x[20]     packing[20]  48
    x[20]     packing[22]  86
    x[20]     packing[24]  191
    x[20]     packing[25]  109
    x[20]     packing[27]  190
    x[20]     packing[28]  110
    x[20]     packing[29]  25
    x[20]     packing[30]  183
    x[20]     packing[31]  177
    x[20]     packing[33]  106
    x[20]     packing[36]  174
    x[20]     packing[37]  141
    x[20]     packing[38]  65
    x[20]     packing[39]  69
    x[20]     packing[40]  108
    x[20]     packing[42]  11
    x[20]     packing[46]  67
    x[20]     packing[47]  27
    x[20]     packing[48]  183
    x[20]     packing[49]  170
    x[20]     R64       1
    x[20]     R71       1
    MARKER    'MARKER'                 'INTEND'
RHS
    RHS1      packing[0]  656
    RHS1      packing[1]  854
    RHS1      packing[2]  514
    RHS1      packing[3]  756
    RHS1      packing[4]  651
    RHS1      packing[5]  697
    RHS1      packing[6]  739
    RHS1      packing[7]  998
    RHS1      packing[8]  1054
    RHS1      packing[9]  766
    RHS1      packing[10]  960
    RHS1      packing[11]  577
    RHS1      packing[12]  1050
    RHS1      packing[13]  572
    RHS1      packing[14]  777
    RHS1      packing[15]  1148
    RHS1      packing[16]  663
    RHS1      packing[17]  1029
    RHS1      packing[18]  706
    RHS1      packing[19]  496
    RHS1      packing[20]  759
    RHS1      packing[21]  610
    RHS1      packing[22]  618
    RHS1      packing[23]  768
    RHS1      packing[24]  816
    RHS1      packing[25]  724
    RHS1      packing[26]  736
    RHS1      packing[27]  570
    RHS1      packing[28]  719
    RHS1      packing[29]  756
    RHS1      packing[30]  714
    RHS1      packing[31]  837
    RHS1      packing[32]  534
    RHS1      packing[33]  865
    RHS1      packing[34]  554
    RHS1      packing[35]  726
    RHS1      packing[36]  731
    RHS1      packing[37]  770
    RHS1      packing[38]  704
    RHS1      packing[39]  653
    RHS1      packing[40]  809
    RHS1      packing[41]  996
    RHS1      packing[42]  732
    RHS1      packing[43]  945
    RHS1      packing[44]  422
    RHS1      packing[45]  954
    RHS1      packing[46]  585
    RHS1      packing[47]  759
    RHS1      packing[48]  1020
    RHS1      packing[49]  972
    RHS1      R63       5
    RHS1      R64       4
    RHS1      R65       5
    RHS1      R66       5
    RHS1      R67       5
    RHS1      R68       5
    RHS1      R69       4
    RHS1      R70       4
    RHS1      R71       4
    RHS1      R72       5
    RHS1      R73       4
    RHS1      R74       5
    RHS1      R75       5
BOUNDS
 BV BND1      x[1]    
 BV BND1      x[2]    
 BV BND1      x[3]    
 BV BND1      x[4]    
 BV BND1      x[5]    
 BV BND1      x[6]    
 BV BND1      x[7]    
 BV BND1      x[8]    
 BV BND1      x[9]    
 BV BND1      x[10]   
 BV BND1      x[11]   
 BV BND1      x[12]   
 BV BND1      x[13]   
 BV BND1      x[14]   
 BV BND1      x[15]   
 BV BND1      x[16]   
 BV BND1      x[17]   
 BV BND1      x[18]   
 BV BND1      x[19]   
 BV BND1      x[20]   
ENDATA
